10	5
0	4	2	3	4	1
1	2	7	5
2	1	9
3	1	6
4	1	5
5	1	11
6	1	11
7	1	8
8	2	11	6
9	1	7
10	1	11
11	0
0	0	0	0	0	0	0
1	4	4	2	2	5	5
2	5	5	2	4	1	3
3	8	4	5	1	1	3
4	10	5	5	3	3	2
5	3	1	2	2	3	4
6	6	4	4	2	4	4
7	3	1	3	3	5	5
8	6	5	5	4	2	5
9	7	1	5	4	2	5
10	5	1	5	4	1	3
11	0	0	0	0	0	0
5	5	5	5	5
